55320
48, 17, 23, 53, 34, 54, 47, 30, 4, 18, 12, 9, 14, 2, 25, 11, 31, 1, 27, 33, 42, 45, 52, 16, 15, 39, 36, 46, 22, 10, 29, 21, 49, 55, 26, 28, 6, 3, 43, 13, 51, 40, 7, 37, 5, 35, 24, 20, 50, 38, 8, 44, 32, 41, 19
